c Random generated cnf formula, satisfiable: false
p cnf 10 50
2 8 7 0
8 -1 2 0
-2 7 -9 0
-3 -8 -9 0
-4 7 -1 0
1 -2 -9 0
-3 -6 -1 0
-4 -3 -2 0
4 -5 9 0
-1 4 8 0
8 4 -1 0
-10 4 -1 0
6 8 -1 0
-4 -6 -2 0
-3 -2 9 0
1 5 10 0
1 9 -5 0
2 -4 -9 0
-5 3 7 0
4 1 -9 0
-10 9 -3 0
-7 1 -6 0
-2 1 -4 0
1 3 -2 0
-2 -1 4 0
-8 -10 -9 0
1 4 5 0
3 4 2 0
6 -1 7 0
4 10 -3 0
-7 -5 -1 0
9 8 6 0
10 -2 -3 0
7 6 1 0
6 2 4 0
1 5 2 0
-2 -4 -7 0
9 4 -8 0
-5 -4 3 0
-6 -5 -10 0
-6 4 8 0
5 8 -6 0
10 8 4 0
7 4 3 0
-7 8 4 0
9 3 7 0
-6 9 -5 0
4 2 5 0
10 2 9 0
-1 9 -10 0
